
Log started (V22.1.1.0) Tue Dec 12 23:55:12 2023


Problem 'C:\Users\wangy\Documents\GitHub\re_optimization\result_site_specific_2\tmp4dh9xzrl.pyomo.lp' read.
Read time = 0.30 sec. (8.90 ticks)

Problem name         : C:\Users\wangy\Documents\GitHub\re_optimization\result_site_specific_2\tmp4dh9xzrl.pyomo.lp
Objective sense      : Minimize
Variables            :   64323  [Nneg: 30685,  Free: 11732,  Binary: 6,
                                 Other: 21900]
Objective nonzeros   :      14
Linear constraints   :   86219  [Less: 42355,  Greater: 5,  Equal: 43859]
  Nonzeros           :  219253
  RHS nonzeros       :    3650

Variables            : Min LB: 0.000000         Max UB: 1.000000       
Objective nonzeros   : Min   : 1.000000         Max   : 1.000000       
Linear constraints   :
  Nonzeros           : Min   : 0.001768004      Max   : 2000.000       
  RHS nonzeros       : Min   : 0.07700000       Max   : 100000.0       
Version identifier: 22.1.1.0 | 2022-11-27 | 9160aff4d
Tried aggregator 3 times.
MIP Presolve eliminated 64451 rows and 33921 columns.
Aggregator did 10825 substitutions.
Reduced MIP has 10943 rows, 19577 columns, and 43018 nonzeros.
Reduced MIP has 0 binaries, 0 generals, 0 SOSs, and 0 indicators.
Presolve time = 0.20 sec. (206.84 ticks)
Tried aggregator 1 time.
Detecting symmetries...
Reduced MIP has 10943 rows, 19577 columns, and 43018 nonzeros.
Reduced MIP has 0 binaries, 0 generals, 0 SOSs, and 0 indicators.
Presolve time = 0.03 sec. (29.39 ticks)
MIP emphasis: balance optimality and feasibility.
MIP search method: dynamic search.
Parallel mode: deterministic, using up to 16 threads.
Root relaxation solution time = 0.17 sec. (248.16 ticks)

        Nodes                                         Cuts/
   Node  Left     Objective  IInf  Best Integer    Best Bound    ItCnt     Gap

*     0     0      integral     0     6366.9756     6366.9756     4314    0.00%
Elapsed time = 0.44 sec. (521.48 ticks, tree = 0.00 MB, solutions = 1)

Root node processing (before b&c):
  Real time             =    0.45 sec. (523.56 ticks)
Parallel b&c, 16 threads:
  Real time             =    0.00 sec. (0.00 ticks)
  Sync time (average)   =    0.00 sec.
  Wait time (average)   =    0.00 sec.
                          ------------
Total (root+branch&cut) =    0.45 sec. (523.56 ticks)

Solution pool: 1 solution saved.

MIP - Integer optimal solution:  Objective =  6.3669755567e+03
Solution time =    0.45 sec.  Iterations = 4314  Nodes = 0
Deterministic time = 523.74 ticks  (1156.16 ticks/sec)


Incumbent solution written to file 'C:\Users\wangy\Documents\GitHub\re_optimization\result_site_specific_2\tmpyiyaapei.cplex.sol'.
